(declare-fun e () String)
(declare-fun c () String)
(declare-fun b () String)
(declare-fun d () String)
(declare-fun a () String)
(declare-fun h () String)
(assert (= (str.++ "b" c b "a") (str.++ b "g" h)))
(assert (= (str.++ e "gc" c) a))
(assert (= (str.++ a "h") (str.++ "d" d "ggh")))

(check-sat)
